c This is an instance of the exact track of PACE 2020 Challenge, see https://pacechallenge.org/2020/ 
c TYPE: biology 
c ORIGIN: http://www.genome.jp/kegg/ 
c DESCRIPTION: This is a graph derived from a biological pathway map. The nodes are genes (also representing their associated proteins), enzymes, or chemical compounds, and there is an edge between two nodes if they influence each other (such as a gene modifying the expression of another gene) or take part in a common chemical reaction. This graph is a connected part of the map "psq01230 Biosynthesis of amino acids - Punctularia strigosozonata". 
p tdp 70 79
64 66
64 63
64 65
66 67
42 46
42 41
42 44
42 43
46 45
1 3
1 2
1 8
3 4
54 55
54 53
55 56
39 40
39 38
40 41
10 11
10 12
10 13
10 9
10 52
11 58
11 52
11 9
11 6
32 33
33 25
33 20
26 27
26 19
27 28
5 6
5 4
6 7
6 58
62 63
62 61
2 8
8 9
58 59
30 31
30 51
30 29
31 7
31 34
7 49
7 20
7 17
34 35
35 36
59 60
16 18
16 19
16 15
24 25
20 21
21 19
44 45
44 43
36 37
37 50
37 38
37 47
67 68
68 69
56 57
22 23
22 4
69 70
60 61
12 13
13 52
13 14
29 28
53 14
47 48
